benchmarks/VRPTW/TSPTW/solution/n150w60.004.txt.solution
1 45 130 132 40 138 114 5 145 93 4 27 78 115 99 12 47 148 43 88 60 63 13 136 77 76 85 8 39 82 150 84 36 9 67 33 141 42 137 113 108 22 44 49 71 56 104 123 38 126 73 19 37 119 146 124 118 46 50 149 75 17 74 35 65 106 80 24 68 101 128 29 139 16 48 87 144 125 96 95 120 140 55 102 129 90 103 143 66 7 57 18 10 64 69 134 61 94 26 142 109 72 147 79 70 97 14 59 98 51 15 122 28 86 3 30 111 100 41 58 25 127 2 20 133 31 34 54 53 62 92 110 135 121 131 6 116 107 91 89 52 11 21 105 117 23 81 32 83 151 112 
819
